p cnf 10 34
-7 4 0
6 -5 0
-4 -9 1 -2 -8 -6 3 0
1 -4 0
-8 -5 0
6 -10 -5 -2 0
3 -10 -6 8 0
1 9 10 -5 -7 -8 0
8 4 -5 -3 -2 6 -1 -7 10 0
-10 -9 -7 2 0
6 3 -1 -4 -7 -8 0
-9 8 -7 -2 -5 -3 1 -4 10 -6 0
9 -2 10 -7 0
4 9 -8 3 -7 -2 -6 1 10 -5 0
-6 -4 0
-1 9 0
-5 -4 -10 0
2 1 0
6 8 -2 -9 7 4 3 0
-3 10 1 5 -9 -8 0
6 3 -5 0
-2 3 -4 8 -10 -9 -6 7 -1 0
8 -9 -3 -7 6 4 0
-8 4 1 -2 6 9 -7 -3 10 0
6 9 4 1 0
-10 -4 -6 -8 0
-8 2 6 7 0
10 9 -5 -6 0
9 5 1 2 10 0
-7 10 0
-4 -5 2 -8 1 10 -3 0
9 1 8 -2 6 -5 -10 0
5 -8 0
-7 -3 -9 8 -6 -2 0
